============================[ Problem Statistics ]=============================|                                                                             ||  Number of variables:          4242                                         ||  Number of clauses:            9901                                         ||  Parse time:                   0.31 s                                       ||                                                                             |============================[ Search Statistics ]==============================| Conflicts |          ORIGINAL         |          LEARNT          | Progress ||           |    Vars  Clauses Literals |    Limit  Clauses Lit/Cl |          |===============================================================================|       100 |    1591     6106   462047 |     2238      100     53 | 62.501 % |===============================================================================restarts              : 2conflicts             : 174            (371 /sec)decisions             : 343            (0.00 % random) (731 /sec)propagations          : 10009          (21341 /sec)conflict literals     : 11804          (95.27 % deleted)CPU time              : 0.469 sSATISFIABLE